Optimal - objective value 469.55000000
      0 x0_1                   1                  114.39
      5 x0_6                   1         5.86000000000001
     17 x1_8                   1                       0
     20 x2_0                   1                   49.49
     33 x3_4                   1                       0
     49 x4_10                  1                       0
     56 x5_7                   1                    6.18
     63 x6_3                   1                   24.58
     70 x7_0                   1                       0
     88 x8_9                   1                       0
     95 x9_5                   1                   -8.98
    102 x10_2                  1                       0
    110 u1                    11                       0
    111 u2                    27                       0
    112 u3       5.99999999999999                       0
    113 u4                    17                       0
    114 u5                    21                       0
    115 u6                     3                       0
    116 u7                    30                       0
    117 u8                    14                       0
    118 u9                    17                       0
    119 u10                   25                       0
